p cnf 50 101
6 0
-7 0
8 0
-9 0
10 0
-11 0
-12 0
13 0
14 0
15 0
-1 -2 6 0
-1 -3 7 0
-1 -4 8 0
-1 -5 9 0
-2 -1 6 0
-2 -3 10 0
-2 -4 11 0
-2 -5 12 0
-3 -1 7 0
-3 -2 10 0
-3 -4 13 0
-3 -5 14 0
-4 -1 8 0
-4 -2 11 0
-4 -3 13 0
-4 -5 15 0
-5 -1 9 0
-5 -2 12 0
-5 -3 14 0
-5 -4 15 0
-26 31 0
-27 32 0
-28 33 0
-29 34 0
-30 35 0
-31 36 0
-32 37 0
-33 38 0
-34 39 0
-35 40 0
-36 41 0
-37 42 0
-38 43 0
-39 44 0
-40 45 0
-41 46 0
-42 47 0
-43 48 0
-44 49 0
-45 50 0
26 -1 0
-26 1 0
-2 -26 32 0
2 -32 0
26 -32 0
-2 -27 33 0
2 -33 0
27 -33 0
-2 -28 34 0
2 -34 0
28 -34 0
-2 -29 35 0
2 -35 0
29 -35 0
-3 -31 37 0
3 -37 0
31 -37 0
-3 -32 38 0
3 -38 0
32 -38 0
-3 -33 39 0
3 -39 0
33 -39 0
-3 -34 40 0
3 -40 0
34 -40 0
-4 -36 42 0
4 -42 0
36 -42 0
-4 -37 43 0
4 -43 0
37 -43 0
-4 -38 44 0
4 -44 0
38 -44 0
-4 -39 45 0
4 -45 0
39 -45 0
-5 -41 47 0
5 -47 0
41 -47 0
-5 -42 48 0
5 -48 0
42 -48 0
-5 -43 49 0
5 -49 0
43 -49 0
-5 -44 50 0
5 -50 0
44 -50 0
49 0
